p cnf 1199 2774
1 0
2 0
3 0
4 0
5 0
6 0
7 0
8 0
9 0
10 0
11 0
12 0
13 0
14 0
15 0
16 0
17 0
18 0
19 0
20 0
21 0
22 0
-23 0
-24 0
-25 0
-26 0
-27 0
-28 0
-29 0
-30 0
-31 0
-32 0
-33 0
-34 0
-35 0
-36 0
-37 0
-38 0
-39 0
-40 0
-41 0
-42 0
-43 0
-44 0
-45 0
-46 0
-47 0
48 49 0
50 49 0
-48 -50 -49 0
-1 49 -51 0
1 -49 -51 0
51 -49 -1 0
1 49 51 0
-51 0
52 53 0
2 53 0
-52 -2 -53 0
-50 53 -54 0
50 -53 -54 0
54 -53 -50 0
50 53 54 0
-54 0
52 55 0
56 55 0
-52 -56 -55 0
-2 55 -57 0
2 -55 -57 0
57 -55 -2 0
2 55 57 0
-57 0
58 59 0
60 59 0
-58 -60 -59 0
-3 59 -61 0
3 -59 -61 0
61 -59 -3 0
3 59 61 0
-61 0
62 63 0
64 63 0
-62 -64 -63 0
-60 63 -65 0
60 -63 -65 0
65 -63 -60 0
60 63 65 0
-65 0
64 -66 0
66 -64 0
67 68 0
69 68 0
-67 -69 -68 0
-4 68 -70 0
4 -68 -70 0
70 -68 -4 0
4 68 70 0
-70 0
71 72 0
73 72 0
-71 -73 -72 0
-69 72 -74 0
69 -72 -74 0
74 -72 -69 0
69 72 74 0
-74 0
75 76 0
77 76 0
-75 -77 -76 0
-73 76 -78 0
73 -76 -78 0
78 -76 -73 0
73 76 78 0
-78 0
79 80 0
81 80 0
-79 -81 -80 0
-77 80 -82 0
77 -80 -82 0
82 -80 -77 0
77 80 82 0
-82 0
83 84 0
85 84 0
-83 -85 -84 0
-81 84 -86 0
81 -84 -86 0
86 -84 -81 0
81 84 86 0
-86 0
87 88 0
5 88 0
-87 -5 -88 0
-85 88 -89 0
85 -88 -89 0
89 -88 -85 0
85 88 89 0
-89 0
83 90 0
87 90 0
91 90 0
-83 -87 -91 -90 0
-5 90 -92 0
5 -90 -92 0
92 -90 -5 0
5 90 92 0
-92 0
93 94 0
95 94 0
-93 -95 -94 0
-6 94 -96 0
6 -94 -96 0
96 -94 -6 0
6 94 96 0
-96 0
97 98 0
99 98 0
-97 -99 -98 0
-95 98 -100 0
95 -98 -100 0
100 -98 -95 0
95 98 100 0
-100 0
99 -101 0
101 -99 0
99 102 0
103 102 0
-99 -103 -102 0
-7 102 -104 0
7 -102 -104 0
104 -102 -7 0
7 102 104 0
-104 0
105 106 0
107 106 0
-105 -107 -106 0
-8 106 -108 0
8 -106 -108 0
108 -106 -8 0
8 106 108 0
-108 0
109 110 0
111 110 0
-109 -111 -110 0
-107 110 -112 0
107 -110 -112 0
112 -110 -107 0
107 110 112 0
-112 0
113 114 0
115 114 0
-113 -115 -114 0
-111 114 -116 0
111 -114 -116 0
116 -114 -111 0
111 114 116 0
-116 0
117 118 0
119 118 0
-117 -119 -118 0
-115 118 -120 0
115 -118 -120 0
120 -118 -115 0
115 118 120 0
-120 0
121 122 0
123 122 0
-121 -123 -122 0
-119 122 -124 0
119 -122 -124 0
124 -122 -119 0
119 122 124 0
-124 0
117 125 0
121 125 0
126 125 0
-117 -121 -126 -125 0
-123 125 -127 0
123 -125 -127 0
127 -125 -123 0
123 125 127 0
-127 0
128 129 0
130 129 0
-128 -130 -129 0
-9 129 -131 0
9 -129 -131 0
131 -129 -9 0
9 129 131 0
-131 0
5 132 0
133 132 0
-5 -133 -132 0
-130 132 -134 0
130 -132 -134 0
134 -132 -130 0
130 132 134 0
-134 0
135 136 0
137 136 0
-135 -137 -136 0
-10 136 -138 0
10 -136 -138 0
138 -136 -10 0
10 136 138 0
-138 0
139 140 0
141 140 0
-139 -141 -140 0
-137 140 -142 0
137 -140 -142 0
142 -140 -137 0
137 140 142 0
-142 0
130 143 0
144 143 0
-130 -144 -143 0
-141 143 -145 0
141 -143 -145 0
145 -143 -141 0
141 143 145 0
-145 0
146 147 0
148 147 0
-146 -148 -147 0
-11 147 -149 0
11 -147 -149 0
149 -147 -11 0
11 147 149 0
-149 0
150 151 0
152 151 0
-150 -152 -151 0
-148 151 -153 0
148 -151 -153 0
153 -151 -148 0
148 151 153 0
-153 0
154 155 0
156 155 0
-154 -156 -155 0
-152 155 -157 0
152 -155 -157 0
157 -155 -152 0
152 155 157 0
-157 0
158 159 0
160 159 0
-158 -160 -159 0
-156 159 -161 0
156 -159 -161 0
161 -159 -156 0
156 159 161 0
-161 0
162 163 0
164 163 0
-162 -164 -163 0
-160 163 -165 0
160 -163 -165 0
165 -163 -160 0
160 163 165 0
-165 0
154 166 0
158 166 0
162 166 0
167 166 0
-168 0
-164 166 -169 0
164 -166 -169 0
169 -166 -164 0
164 166 169 0
-169 0
170 171 0
172 171 0
-170 -172 -171 0
-12 171 -173 0
12 -171 -173 0
173 -171 -12 0
12 171 173 0
-173 0
174 175 0
176 175 0
-174 -176 -175 0
-172 175 -177 0
172 -175 -177 0
177 -175 -172 0
172 175 177 0
-177 0
178 179 0
180 179 0
-178 -180 -179 0
-176 179 -181 0
176 -179 -181 0
181 -179 -176 0
176 179 181 0
-181 0
182 183 0
184 183 0
-182 -184 -183 0
-180 183 -185 0
180 -183 -185 0
185 -183 -180 0
180 183 185 0
-185 0
186 187 0
188 187 0
-186 -188 -187 0
-184 187 -189 0
184 -187 -189 0
189 -187 -184 0
184 187 189 0
-189 0
190 191 0
192 191 0
-190 -192 -191 0
-188 191 -193 0
188 -191 -193 0
193 -191 -188 0
188 191 193 0
-193 0
182 194 0
186 194 0
190 194 0
195 194 0
-196 0
-192 194 -197 0
192 -194 -197 0
197 -194 -192 0
192 194 197 0
-197 0
148 198 0
199 198 0
-148 -199 -198 0
-13 198 -200 0
13 -198 -200 0
200 -198 -13 0
13 198 200 0
-200 0
192 201 0
202 201 0
-192 -202 -201 0
-14 201 -203 0
14 -201 -203 0
203 -201 -14 0
14 201 203 0
-203 0
204 205 0
1 205 0
-204 -1 -205 0
-15 205 -206 0
15 -205 -206 0
206 -205 -15 0
15 205 206 0
-206 0
207 208 0
209 208 0
-207 -209 -208 0
-16 208 -210 0
16 -208 -210 0
210 -208 -16 0
16 208 210 0
-210 0
211 212 0
213 212 0
-211 -213 -212 0
-209 212 -214 0
209 -212 -214 0
214 -212 -209 0
209 212 214 0
-214 0
2 215 0
216 215 0
-2 -216 -215 0
-213 215 -217 0
213 -215 -217 0
217 -215 -213 0
213 215 217 0
-217 0
1 218 0
219 218 0
-1 -219 -218 0
-17 218 -220 0
17 -218 -220 0
220 -218 -17 0
17 218 220 0
-220 0
221 222 0
223 222 0
-221 -223 -222 0
-18 222 -224 0
18 -222 -224 0
224 -222 -18 0
18 222 224 0
-224 0
225 226 0
227 226 0
-225 -227 -226 0
-223 226 -228 0
223 -226 -228 0
228 -226 -223 0
223 226 228 0
-228 0
180 229 0
230 229 0
-180 -230 -229 0
-227 229 -231 0
227 -229 -231 0
231 -229 -227 0
227 229 231 0
-231 0
232 233 0
17 233 0
-232 -17 -233 0
-19 233 -234 0
19 -233 -234 0
234 -233 -19 0
19 233 234 0
-234 0
235 236 0
237 236 0
-235 -237 -236 0
-20 236 -238 0
20 -236 -238 0
238 -236 -20 0
20 236 238 0
-238 0
239 240 0
241 240 0
-239 -241 -240 0
-237 240 -242 0
237 -240 -242 0
242 -240 -237 0
237 240 242 0
-242 0
111 243 0
244 243 0
-111 -244 -243 0
-241 243 -245 0
241 -243 -245 0
245 -243 -241 0
241 243 245 0
-245 0
246 247 0
248 247 0
-246 -248 -247 0
-21 247 -249 0
21 -247 -249 0
249 -247 -21 0
21 247 249 0
-249 0
250 251 0
7 251 0
-250 -7 -251 0
-248 251 -252 0
248 -251 -252 0
252 -251 -248 0
248 251 252 0
-252 0
7 253 0
254 253 0
-7 -254 -253 0
-22 253 -255 0
22 -253 -255 0
255 -253 -22 0
22 253 255 0
-255 0
256 257 0
258 257 0
-256 -258 -257 0
-23 257 -259 0
23 -257 -259 0
259 -257 -23 0
23 257 259 0
-259 0
260 261 0
262 261 0
-260 -262 -261 0
-258 261 -263 0
258 -261 -263 0
263 -261 -258 0
258 261 263 0
-263 0
264 265 0
266 265 0
-264 -266 -265 0
-262 265 -267 0
262 -265 -267 0
267 -265 -262 0
262 265 267 0
-267 0
268 269 0
270 269 0
-268 -270 -269 0
-266 269 -271 0
266 -269 -271 0
271 -269 -266 0
266 269 271 0
-271 0
264 272 0
268 272 0
273 272 0
-264 -268 -273 -272 0
-270 272 -274 0
270 -272 -274 0
274 -272 -270 0
270 272 274 0
-274 0
275 276 0
277 276 0
-275 -277 -276 0
-24 276 -278 0
24 -276 -278 0
278 -276 -24 0
24 276 278 0
-278 0
279 280 0
281 280 0
-279 -281 -280 0
-277 280 -282 0
277 -280 -282 0
282 -280 -277 0
277 280 282 0
-282 0
283 284 0
285 284 0
-283 -285 -284 0
-281 284 -286 0
281 -284 -286 0
286 -284 -281 0
281 284 286 0
-286 0
287 288 0
289 288 0
-287 -289 -288 0
-285 288 -290 0
285 -288 -290 0
290 -288 -285 0
285 288 290 0
-290 0
291 292 0
293 292 0
-291 -293 -292 0
-289 292 -294 0
289 -292 -294 0
294 -292 -289 0
289 292 294 0
-294 0
295 296 0
297 296 0
-295 -297 -296 0
-293 296 -298 0
293 -296 -298 0
298 -296 -293 0
293 296 298 0
-298 0
299 300 0
301 300 0
-299 -301 -300 0
-297 300 -302 0
297 -300 -302 0
302 -300 -297 0
297 300 302 0
-302 0
291 303 0
295 303 0
299 303 0
304 303 0
-305 0
-301 303 -306 0
301 -303 -306 0
306 -303 -301 0
301 303 306 0
-306 0
307 308 0
309 308 0
-307 -309 -308 0
-25 308 -310 0
25 -308 -310 0
310 -308 -25 0
25 308 310 0
-310 0
311 312 0
313 312 0
-311 -313 -312 0
-309 312 -314 0
309 -312 -314 0
314 -312 -309 0
309 312 314 0
-314 0
315 316 0
317 316 0
-315 -317 -316 0
-313 316 -318 0
313 -316 -318 0
318 -316 -313 0
313 316 318 0
-318 0
319 320 0
321 320 0
-319 -321 -320 0
-317 320 -322 0
317 -320 -322 0
322 -320 -317 0
317 320 322 0
-322 0
323 324 0
325 324 0
-323 -325 -324 0
-321 324 -326 0
321 -324 -326 0
326 -324 -321 0
321 324 326 0
-326 0
327 328 0
329 328 0
-327 -329 -328 0
-325 328 -330 0
325 -328 -330 0
330 -328 -325 0
325 328 330 0
-330 0
319 331 0
323 331 0
327 331 0
332 331 0
-333 0
-329 331 -334 0
329 -331 -334 0
334 -331 -329 0
329 331 334 0
-334 0
335 336 0
337 336 0
-335 -337 -336 0
-26 336 -338 0
26 -336 -338 0
338 -336 -26 0
26 336 338 0
-338 0
339 340 0
341 340 0
-339 -341 -340 0
-337 340 -342 0
337 -340 -342 0
342 -340 -337 0
337 340 342 0
-342 0
180 343 0
344 343 0
-180 -344 -343 0
-341 343 -345 0
341 -343 -345 0
345 -343 -341 0
341 343 345 0
-345 0
346 347 0
348 347 0
-346 -348 -347 0
-27 347 -349 0
27 -347 -349 0
349 -347 -27 0
27 347 349 0
-349 0
350 351 0
352 351 0
-350 -352 -351 0
-348 351 -353 0
348 -351 -353 0
353 -351 -348 0
348 351 353 0
-353 0
354 355 0
356 355 0
-354 -356 -355 0
-352 355 -357 0
352 -355 -357 0
357 -355 -352 0
352 355 357 0
-357 0
358 359 0
360 359 0
-358 -360 -359 0
-356 359 -361 0
356 -359 -361 0
361 -359 -356 0
356 359 361 0
-361 0
362 363 0
364 363 0
-362 -364 -363 0
-360 363 -365 0
360 -363 -365 0
365 -363 -360 0
360 363 365 0
-365 0
362 366 0
367 366 0
-362 -367 -366 0
-364 366 -368 0
364 -366 -368 0
368 -366 -364 0
364 366 368 0
-368 0
369 370 0
371 370 0
-369 -371 -370 0
-28 370 -372 0
28 -370 -372 0
372 -370 -28 0
28 370 372 0
-372 0
373 374 0
375 374 0
-373 -375 -374 0
-371 374 -376 0
371 -374 -376 0
376 -374 -371 0
371 374 376 0
-376 0
377 378 0
379 378 0
-377 -379 -378 0
-375 378 -380 0
375 -378 -380 0
380 -378 -375 0
375 378 380 0
-380 0
381 382 0
383 382 0
-381 -383 -382 0
-379 382 -384 0
379 -382 -384 0
384 -382 -379 0
379 382 384 0
-384 0
385 386 0
387 386 0
-385 -387 -386 0
-383 386 -388 0
383 -386 -388 0
388 -386 -383 0
383 386 388 0
-388 0
389 390 0
391 390 0
-389 -391 -390 0
-387 390 -392 0
387 -390 -392 0
392 -390 -387 0
387 390 392 0
-392 0
385 393 0
389 393 0
394 393 0
-385 -389 -394 -393 0
-391 393 -395 0
391 -393 -395 0
395 -393 -391 0
391 393 395 0
-395 0
396 397 0
398 397 0
-396 -398 -397 0
-29 397 -399 0
29 -397 -399 0
399 -397 -29 0
29 397 399 0
-399 0
400 401 0
402 401 0
-400 -402 -401 0
-398 401 -403 0
398 -401 -403 0
403 -401 -398 0
398 401 403 0
-403 0
404 405 0
406 405 0
-404 -406 -405 0
-402 405 -407 0
402 -405 -407 0
407 -405 -402 0
402 405 407 0
-407 0
408 409 0
410 409 0
-408 -410 -409 0
-406 409 -411 0
406 -409 -411 0
411 -409 -406 0
406 409 411 0
-411 0
412 413 0
414 413 0
-412 -414 -413 0
-410 413 -415 0
410 -413 -415 0
415 -413 -410 0
410 413 415 0
-415 0
404 416 0
408 416 0
412 416 0
417 416 0
-418 0
-414 416 -419 0
414 -416 -419 0
419 -416 -414 0
414 416 419 0
-419 0
420 421 0
422 421 0
-420 -422 -421 0
-30 421 -423 0
30 -421 -423 0
423 -421 -30 0
30 421 423 0
-423 0
424 425 0
426 425 0
-424 -426 -425 0
-422 425 -427 0
422 -425 -427 0
427 -425 -422 0
422 425 427 0
-427 0
428 429 0
430 429 0
-428 -430 -429 0
-426 429 -431 0
426 -429 -431 0
431 -429 -426 0
426 429 431 0
-431 0
432 433 0
434 433 0
-432 -434 -433 0
-430 433 -435 0
430 -433 -435 0
435 -433 -430 0
430 433 435 0
-435 0
436 437 0
438 437 0
-436 -438 -437 0
-434 437 -439 0
434 -437 -439 0
439 -437 -434 0
434 437 439 0
-439 0
440 441 0
442 441 0
-440 -442 -441 0
-438 441 -443 0
438 -441 -443 0
443 -441 -438 0
438 441 443 0
-443 0
436 444 0
440 444 0
445 444 0
-436 -440 -445 -444 0
-442 444 -446 0
442 -444 -446 0
446 -444 -442 0
442 444 446 0
-446 0
447 448 0
449 448 0
-447 -449 -448 0
-31 448 -450 0
31 -448 -450 0
450 -448 -31 0
31 448 450 0
-450 0
451 452 0
453 452 0
-451 -453 -452 0
-449 452 -454 0
449 -452 -454 0
454 -452 -449 0
449 452 454 0
-454 0
455 456 0
457 456 0
-455 -457 -456 0
-453 456 -458 0
453 -456 -458 0
458 -456 -453 0
453 456 458 0
-458 0
459 460 0
461 460 0
-459 -461 -460 0
-457 460 -462 0
457 -460 -462 0
462 -460 -457 0
457 460 462 0
-462 0
463 464 0
465 464 0
-463 -465 -464 0
-461 464 -466 0
461 -464 -466 0
466 -464 -461 0
461 464 466 0
-466 0
459 467 0
463 467 0
468 467 0
-459 -463 -468 -467 0
-465 467 -469 0
465 -467 -469 0
469 -467 -465 0
465 467 469 0
-469 0
470 471 0
472 471 0
-470 -472 -471 0
-32 471 -473 0
32 -471 -473 0
473 -471 -32 0
32 471 473 0
-473 0
474 475 0
476 475 0
-474 -476 -475 0
-472 475 -477 0
472 -475 -477 0
477 -475 -472 0
472 475 477 0
-477 0
387 478 0
479 478 0
-387 -479 -478 0
-476 478 -480 0
476 -478 -480 0
480 -478 -476 0
476 478 480 0
-480 0
481 482 0
483 482 0
-481 -483 -482 0
-33 482 -484 0
33 -482 -484 0
484 -482 -33 0
33 482 484 0
-484 0
364 485 0
486 485 0
-364 -486 -485 0
-483 485 -487 0
483 -485 -487 0
487 -485 -483 0
483 485 487 0
-487 0
488 489 0
490 489 0
-488 -490 -489 0
-34 489 -491 0
34 -489 -491 0
491 -489 -34 0
34 489 491 0
-491 0
492 493 0
494 493 0
-492 -494 -493 0
-490 493 -495 0
490 -493 -495 0
495 -493 -490 0
490 493 495 0
-495 0
496 497 0
498 497 0
-496 -498 -497 0
-494 497 -499 0
494 -497 -499 0
499 -497 -494 0
494 497 499 0
-499 0
500 501 0
502 501 0
-500 -502 -501 0
-498 501 -503 0
498 -501 -503 0
503 -501 -498 0
498 501 503 0
-503 0
500 504 0
505 504 0
-500 -505 -504 0
-502 504 -506 0
502 -504 -506 0
506 -504 -502 0
502 504 506 0
-506 0
507 508 0
509 508 0
-507 -509 -508 0
-35 508 -510 0
35 -508 -510 0
510 -508 -35 0
35 508 510 0
-510 0
511 512 0
513 512 0
-511 -513 -512 0
-509 512 -514 0
509 -512 -514 0
514 -512 -509 0
509 512 514 0
-514 0
515 516 0
517 516 0
-515 -517 -516 0
-513 516 -518 0
513 -516 -518 0
518 -516 -513 0
513 516 518 0
-518 0
519 520 0
521 520 0
-519 -521 -520 0
-517 520 -522 0
517 -520 -522 0
522 -520 -517 0
517 520 522 0
-522 0
523 524 0
525 524 0
-523 -525 -524 0
-521 524 -526 0
521 -524 -526 0
526 -524 -521 0
521 524 526 0
-526 0
519 527 0
523 527 0
528 527 0
-519 -523 -528 -527 0
-525 527 -529 0
525 -527 -529 0
529 -527 -525 0
525 527 529 0
-529 0
530 531 0
532 531 0
-530 -532 -531 0
-36 531 -533 0
36 -531 -533 0
533 -531 -36 0
36 531 533 0
-533 0
534 535 0
536 535 0
-534 -536 -535 0
-532 535 -537 0
532 -535 -537 0
537 -535 -532 0
532 535 537 0
-537 0
115 538 0
539 538 0
-115 -539 -538 0
-536 538 -540 0
536 -538 -540 0
540 -538 -536 0
536 538 540 0
-540 0
541 542 0
543 542 0
-541 -543 -542 0
-37 542 -544 0
37 -542 -544 0
544 -542 -37 0
37 542 544 0
-544 0
545 546 0
547 546 0
-545 -547 -546 0
-543 546 -548 0
543 -546 -548 0
548 -546 -543 0
543 546 548 0
-548 0
549 550 0
551 550 0
-549 -551 -550 0
-547 550 -552 0
547 -550 -552 0
552 -550 -547 0
547 550 552 0
-552 0
553 554 0
555 554 0
-553 -555 -554 0
-551 554 -556 0
551 -554 -556 0
556 -554 -551 0
551 554 556 0
-556 0
557 558 0
559 558 0
-557 -559 -558 0
-555 558 -560 0
555 -558 -560 0
560 -558 -555 0
555 558 560 0
-560 0
561 562 0
563 562 0
-561 -563 -562 0
-559 562 -564 0
559 -562 -564 0
564 -562 -559 0
559 562 564 0
-564 0
565 566 0
567 566 0
-565 -567 -566 0
-563 566 -568 0
563 -566 -568 0
568 -566 -563 0
563 566 568 0
-568 0
557 569 0
561 569 0
565 569 0
570 569 0
-571 0
-567 569 -572 0
567 -569 -572 0
572 -569 -567 0
567 569 572 0
-572 0
573 574 0
575 574 0
-573 -575 -574 0
-38 574 -576 0
38 -574 -576 0
576 -574 -38 0
38 574 576 0
-576 0
577 578 0
579 578 0
-577 -579 -578 0
-575 578 -580 0
575 -578 -580 0
580 -578 -575 0
575 578 580 0
-580 0
581 582 0
583 582 0
-581 -583 -582 0
-579 582 -584 0
579 -582 -584 0
584 -582 -579 0
579 582 584 0
-584 0
585 586 0
587 586 0
-585 -587 -586 0
-583 586 -588 0
583 -586 -588 0
588 -586 -583 0
583 586 588 0
-588 0
585 589 0
590 589 0
-585 -590 -589 0
-587 589 -591 0
587 -589 -591 0
591 -589 -587 0
587 589 591 0
-591 0
592 593 0
594 593 0
-592 -594 -593 0
-39 593 -595 0
39 -593 -595 0
595 -593 -39 0
39 593 595 0
-595 0
596 597 0
598 597 0
-596 -598 -597 0
-594 597 -599 0
594 -597 -599 0
599 -597 -594 0
594 597 599 0
-599 0
600 601 0
602 601 0
-600 -602 -601 0
-598 601 -603 0
598 -601 -603 0
603 -601 -598 0
598 601 603 0
-603 0
602 -604 0
604 -602 0
341 605 0
606 605 0
-341 -606 -605 0
-40 605 -607 0
40 -605 -607 0
607 -605 -40 0
40 605 607 0
-607 0
494 608 0
609 608 0
-494 -609 -608 0
-41 608 -610 0
41 -608 -610 0
610 -608 -41 0
41 608 610 0
-610 0
611 612 0
613 612 0
-611 -613 -612 0
-42 612 -614 0
42 -612 -614 0
614 -612 -42 0
42 612 614 0
-614 0
615 616 0
617 616 0
-615 -617 -616 0
-613 616 -618 0
613 -616 -618 0
618 -616 -613 0
613 616 618 0
-618 0
619 620 0
621 620 0
-619 -621 -620 0
-617 620 -622 0
617 -620 -622 0
622 -620 -617 0
617 620 622 0
-622 0
619 623 0
624 623 0
-619 -624 -623 0
-621 623 -625 0
621 -623 -625 0
625 -623 -621 0
621 623 625 0
-625 0
626 627 0
628 627 0
-626 -628 -627 0
-43 627 -629 0
43 -627 -629 0
629 -627 -43 0
43 627 629 0
-629 0
630 631 0
632 631 0
-630 -632 -631 0
-628 631 -633 0
628 -631 -633 0
633 -631 -628 0
628 631 633 0
-633 0
634 635 0
636 635 0
-634 -636 -635 0
-632 635 -637 0
632 -635 -637 0
637 -635 -632 0
632 635 637 0
-637 0
364 638 0
639 638 0
-364 -639 -638 0
-636 638 -640 0
636 -638 -640 0
640 -638 -636 0
636 638 640 0
-640 0
641 642 0
643 642 0
-641 -643 -642 0
-44 642 -644 0
44 -642 -644 0
644 -642 -44 0
44 642 644 0
-644 0
379 645 0
646 645 0
-379 -646 -645 0
-643 645 -647 0
643 -645 -647 0
647 -645 -643 0
643 645 647 0
-647 0
648 649 0
650 649 0
-648 -650 -649 0
-45 649 -651 0
45 -649 -651 0
651 -649 -45 0
45 649 651 0
-651 0
652 653 0
654 653 0
-652 -654 -653 0
-650 653 -655 0
650 -653 -655 0
655 -653 -650 0
650 653 655 0
-655 0
360 656 0
657 656 0
-360 -657 -656 0
-654 656 -658 0
654 -656 -658 0
658 -656 -654 0
654 656 658 0
-658 0
659 660 0
661 660 0
-659 -661 -660 0
-46 660 -662 0
46 -660 -662 0
662 -660 -46 0
46 660 662 0
-662 0
661 -663 0
663 -661 0
664 665 0
666 665 0
-664 -666 -665 0
-47 665 -667 0
47 -665 -667 0
667 -665 -47 0
47 665 667 0
-667 0
668 669 0
670 669 0
-668 -670 -669 0
-666 669 -671 0
666 -669 -671 0
671 -669 -666 0
666 669 671 0
-671 0
672 673 0
674 673 0
-672 -674 -673 0
-670 673 -675 0
670 -673 -675 0
675 -673 -670 0
670 673 675 0
-675 0
664 676 0
668 676 0
672 676 0
677 676 0
-678 0
-674 676 -679 0
674 -676 -679 0
679 -676 -674 0
674 676 679 0
-679 0
680 681 0
-682 681 0
-680 682 -681 0
48 -681 0
-48 681 0
683 684 0
-685 684 0
-683 685 -684 0
52 -684 0
-52 684 0
686 687 0
-688 687 0
-686 688 -687 0
56 -687 0
-56 687 0
689 690 0
-691 690 0
-689 691 -690 0
58 -690 0
-58 690 0
692 693 0
-694 693 0
-692 694 -693 0
62 -693 0
-62 693 0
695 696 0
-697 696 0
-695 697 -696 0
66 -696 0
-66 696 0
698 699 0
-700 699 0
-698 700 -699 0
67 -699 0
-67 699 0
701 702 0
-703 702 0
-701 703 -702 0
71 -702 0
-71 702 0
704 705 0
-706 705 0
-704 706 -705 0
75 -705 0
-75 705 0
707 708 0
-709 708 0
-707 709 -708 0
79 -708 0
-79 708 0
710 711 0
-712 711 0
-710 712 -711 0
83 -711 0
-83 711 0
713 714 0
-715 714 0
-713 715 -714 0
87 -714 0
-87 714 0
716 717 0
-718 717 0
-716 718 -717 0
91 -717 0
-91 717 0
719 720 0
-721 720 0
-719 721 -720 0
93 -720 0
-93 720 0
722 723 0
-724 723 0
-722 724 -723 0
97 -723 0
-97 723 0
725 726 0
-727 726 0
-725 727 -726 0
101 -726 0
-101 726 0
728 729 0
-730 729 0
-728 730 -729 0
103 -729 0
-103 729 0
731 732 0
-733 732 0
-731 733 -732 0
105 -732 0
-105 732 0
734 735 0
-736 735 0
-734 736 -735 0
109 -735 0
-109 735 0
737 738 0
-739 738 0
-737 739 -738 0
113 -738 0
-113 738 0
740 741 0
-742 741 0
-740 742 -741 0
117 -741 0
-117 741 0
743 744 0
-745 744 0
-743 745 -744 0
121 -744 0
-121 744 0
746 747 0
-748 747 0
-746 748 -747 0
126 -747 0
-126 747 0
749 750 0
-751 750 0
-749 751 -750 0
128 -750 0
-128 750 0
752 753 0
-754 753 0
-752 754 -753 0
133 -753 0
-133 753 0
755 756 0
-757 756 0
-755 757 -756 0
135 -756 0
-135 756 0
758 759 0
-760 759 0
-758 760 -759 0
139 -759 0
-139 759 0
761 762 0
-763 762 0
-761 763 -762 0
144 -762 0
-144 762 0
764 765 0
-766 765 0
-764 766 -765 0
146 -765 0
-146 765 0
767 768 0
-769 768 0
-767 769 -768 0
150 -768 0
-150 768 0
770 771 0
-772 771 0
-770 772 -771 0
154 -771 0
-154 771 0
773 774 0
-775 774 0
-773 775 -774 0
158 -774 0
-158 774 0
776 777 0
-778 777 0
-776 778 -777 0
162 -777 0
-162 777 0
779 780 0
-781 780 0
-779 781 -780 0
167 -780 0
-167 780 0
782 783 0
-784 783 0
-782 784 -783 0
170 -783 0
-170 783 0
785 786 0
-787 786 0
-785 787 -786 0
174 -786 0
-174 786 0
788 789 0
-790 789 0
-788 790 -789 0
178 -789 0
-178 789 0
791 792 0
-793 792 0
-791 793 -792 0
182 -792 0
-182 792 0
794 795 0
-796 795 0
-794 796 -795 0
186 -795 0
-186 795 0
797 798 0
-799 798 0
-797 799 -798 0
190 -798 0
-190 798 0
800 801 0
-802 801 0
-800 802 -801 0
195 -801 0
-195 801 0
803 804 0
-805 804 0
-803 805 -804 0
199 -804 0
-199 804 0
806 807 0
-808 807 0
-806 808 -807 0
202 -807 0
-202 807 0
809 810 0
-811 810 0
-809 811 -810 0
204 -810 0
-204 810 0
812 813 0
-814 813 0
-812 814 -813 0
207 -813 0
-207 813 0
815 816 0
-817 816 0
-815 817 -816 0
211 -816 0
-211 816 0
818 819 0
-820 819 0
-818 820 -819 0
216 -819 0
-216 819 0
821 822 0
-823 822 0
-821 823 -822 0
219 -822 0
-219 822 0
824 825 0
-826 825 0
-824 826 -825 0
221 -825 0
-221 825 0
827 828 0
-829 828 0
-827 829 -828 0
225 -828 0
-225 828 0
830 831 0
-832 831 0
-830 832 -831 0
230 -831 0
-230 831 0
833 834 0
-835 834 0
-833 835 -834 0
232 -834 0
-232 834 0
836 837 0
-838 837 0
-836 838 -837 0
235 -837 0
-235 837 0
839 840 0
-841 840 0
-839 841 -840 0
239 -840 0
-239 840 0
842 843 0
-844 843 0
-842 844 -843 0
244 -843 0
-244 843 0
845 846 0
-847 846 0
-845 847 -846 0
246 -846 0
-246 846 0
848 849 0
-850 849 0
-848 850 -849 0
250 -849 0
-250 849 0
851 852 0
-853 852 0
-851 853 -852 0
254 -852 0
-254 852 0
854 855 0
855 -856 0
-854 856 -855 0
256 -855 0
-256 855 0
857 858 0
-859 858 0
-857 859 -858 0
260 -858 0
-260 858 0
860 861 0
-862 861 0
-860 862 -861 0
264 -861 0
-264 861 0
863 864 0
-865 864 0
-863 865 -864 0
268 -864 0
-268 864 0
866 867 0
-868 867 0
-866 868 -867 0
273 -867 0
-273 867 0
869 870 0
-871 870 0
-869 871 -870 0
275 -870 0
-275 870 0
872 873 0
873 -874 0
-872 874 -873 0
279 -873 0
-279 873 0
875 876 0
-877 876 0
-875 877 -876 0
283 -876 0
-283 876 0
878 879 0
879 -880 0
-878 880 -879 0
287 -879 0
-287 879 0
881 882 0
-883 882 0
-881 883 -882 0
291 -882 0
-291 882 0
884 885 0
-886 885 0
-884 886 -885 0
295 -885 0
-295 885 0
887 888 0
888 -889 0
-887 889 -888 0
299 -888 0
-299 888 0
890 891 0
-892 891 0
-890 892 -891 0
304 -891 0
-304 891 0
893 894 0
-895 894 0
-893 895 -894 0
307 -894 0
-307 894 0
896 897 0
897 -898 0
-896 898 -897 0
311 -897 0
-311 897 0
899 900 0
-901 900 0
-899 901 -900 0
315 -900 0
-315 900 0
902 903 0
-904 903 0
-902 904 -903 0
319 -903 0
-319 903 0
905 906 0
906 -907 0
-905 907 -906 0
323 -906 0
-323 906 0
908 909 0
-910 909 0
-908 910 -909 0
327 -909 0
-327 909 0
911 912 0
912 -913 0
-911 913 -912 0
332 -912 0
-332 912 0
914 915 0
-916 915 0
-914 916 -915 0
335 -915 0
-335 915 0
917 918 0
-919 918 0
-917 919 -918 0
339 -918 0
-339 918 0
920 921 0
921 -922 0
-920 922 -921 0
344 -921 0
-344 921 0
923 924 0
924 -925 0
-923 925 -924 0
346 -924 0
-346 924 0
926 927 0
-928 927 0
-926 928 -927 0
350 -927 0
-350 927 0
929 930 0
-931 930 0
-929 931 -930 0
354 -930 0
-354 930 0
932 933 0
-934 933 0
-932 934 -933 0
358 -933 0
-358 933 0
935 936 0
-937 936 0
-935 937 -936 0
362 -936 0
-362 936 0
938 939 0
-940 939 0
-938 940 -939 0
367 -939 0
-367 939 0
941 942 0
-943 942 0
-941 943 -942 0
369 -942 0
-369 942 0
944 945 0
-946 945 0
-944 946 -945 0
373 -945 0
-373 945 0
947 948 0
948 -949 0
-947 949 -948 0
377 -948 0
-377 948 0
950 951 0
-952 951 0
-950 952 -951 0
381 -951 0
-381 951 0
953 954 0
954 -955 0
-953 955 -954 0
385 -954 0
-385 954 0
956 957 0
957 -958 0
-956 958 -957 0
389 -957 0
-389 957 0
959 960 0
-961 960 0
-959 961 -960 0
394 -960 0
-394 960 0
962 963 0
-964 963 0
-962 964 -963 0
396 -963 0
-396 963 0
965 966 0
-967 966 0
-965 967 -966 0
400 -966 0
-400 966 0
968 969 0
-970 969 0
-968 970 -969 0
404 -969 0
-404 969 0
971 972 0
-973 972 0
-971 973 -972 0
408 -972 0
-408 972 0
974 975 0
-976 975 0
-974 976 -975 0
412 -975 0
-412 975 0
977 978 0
978 -979 0
-977 979 -978 0
417 -978 0
-417 978 0
980 981 0
-982 981 0
-980 982 -981 0
420 -981 0
-420 981 0
983 984 0
-985 984 0
-983 985 -984 0
424 -984 0
-424 984 0
986 987 0
-988 987 0
-986 988 -987 0
428 -987 0
-428 987 0
989 990 0
990 -991 0
-989 991 -990 0
432 -990 0
-432 990 0
992 993 0
993 -994 0
-992 994 -993 0
436 -993 0
-436 993 0
995 996 0
-997 996 0
-995 997 -996 0
440 -996 0
-440 996 0
998 999 0
-1000 999 0
-998 1000 -999 0
445 -999 0
-445 999 0
1001 1002 0
-1003 1002 0
-1001 1003 -1002 0
447 -1002 0
-447 1002 0
1004 1005 0
-1006 1005 0
-1004 1006 -1005 0
451 -1005 0
-451 1005 0
1007 1008 0
-1009 1008 0
-1007 1009 -1008 0
455 -1008 0
-455 1008 0
1010 1011 0
1011 -1012 0
-1010 1012 -1011 0
459 -1011 0
-459 1011 0
1013 1014 0
-1015 1014 0
-1013 1015 -1014 0
463 -1014 0
-463 1014 0
1016 1017 0
-1018 1017 0
-1016 1018 -1017 0
468 -1017 0
-468 1017 0
1019 1020 0
-1021 1020 0
-1019 1021 -1020 0
470 -1020 0
-470 1020 0
1022 1023 0
-1024 1023 0
-1022 1024 -1023 0
474 -1023 0
-474 1023 0
1025 1026 0
-1027 1026 0
-1025 1027 -1026 0
479 -1026 0
-479 1026 0
1028 1029 0
-1030 1029 0
-1028 1030 -1029 0
481 -1029 0
-481 1029 0
1031 1032 0
-1033 1032 0
-1031 1033 -1032 0
486 -1032 0
-486 1032 0
1034 1035 0
1035 -1036 0
-1034 1036 -1035 0
488 -1035 0
-488 1035 0
1037 1038 0
-1039 1038 0
-1037 1039 -1038 0
492 -1038 0
-492 1038 0
1040 1041 0
-1042 1041 0
-1040 1042 -1041 0
496 -1041 0
-496 1041 0
1043 1044 0
1044 -1045 0
-1043 1045 -1044 0
500 -1044 0
-500 1044 0
1046 1047 0
-1048 1047 0
-1046 1048 -1047 0
505 -1047 0
-505 1047 0
1049 1050 0
1050 -1051 0
-1049 1051 -1050 0
507 -1050 0
-507 1050 0
1052 1053 0
-1054 1053 0
-1052 1054 -1053 0
511 -1053 0
-511 1053 0
1055 1056 0
1056 -1057 0
-1055 1057 -1056 0
515 -1056 0
-515 1056 0
1058 1059 0
-1060 1059 0
-1058 1060 -1059 0
519 -1059 0
-519 1059 0
1061 1062 0
1062 -1063 0
-1061 1063 -1062 0
523 -1062 0
-523 1062 0
1064 1065 0
-1066 1065 0
-1064 1066 -1065 0
528 -1065 0
-528 1065 0
1067 1068 0
1068 -1069 0
-1067 1069 -1068 0
530 -1068 0
-530 1068 0
1070 1071 0
1071 -1072 0
-1070 1072 -1071 0
534 -1071 0
-534 1071 0
1073 1074 0
1074 -1075 0
-1073 1075 -1074 0
539 -1074 0
-539 1074 0
1076 1077 0
-1078 1077 0
-1076 1078 -1077 0
541 -1077 0
-541 1077 0
1079 1080 0
-1081 1080 0
-1079 1081 -1080 0
545 -1080 0
-545 1080 0
1082 1083 0
-1084 1083 0
-1082 1084 -1083 0
549 -1083 0
-549 1083 0
1085 1086 0
1086 -1087 0
-1085 1087 -1086 0
553 -1086 0
-553 1086 0
1088 1089 0
-1090 1089 0
-1088 1090 -1089 0
557 -1089 0
-557 1089 0
1091 1092 0
-1093 1092 0
-1091 1093 -1092 0
561 -1092 0
-561 1092 0
1094 1095 0
1095 -1096 0
-1094 1096 -1095 0
565 -1095 0
-565 1095 0
1097 1098 0
-1099 1098 0
-1097 1099 -1098 0
570 -1098 0
-570 1098 0
1100 1101 0
-1102 1101 0
-1100 1102 -1101 0
573 -1101 0
-573 1101 0
1103 1104 0
-1105 1104 0
-1103 1105 -1104 0
577 -1104 0
-577 1104 0
1106 1107 0
-1108 1107 0
-1106 1108 -1107 0
581 -1107 0
-581 1107 0
1109 1110 0
1110 -1111 0
-1109 1111 -1110 0
585 -1110 0
-585 1110 0
1112 1113 0
-1114 1113 0
-1112 1114 -1113 0
590 -1113 0
-590 1113 0
1115 1116 0
1116 -1117 0
-1115 1117 -1116 0
592 -1116 0
-592 1116 0
1118 1119 0
-1120 1119 0
-1118 1120 -1119 0
596 -1119 0
-596 1119 0
1121 1122 0
-1123 1122 0
-1121 1123 -1122 0
600 -1122 0
-600 1122 0
1124 1125 0
-1126 1125 0
-1124 1126 -1125 0
604 -1125 0
-604 1125 0
1127 1128 0
-1129 1128 0
-1127 1129 -1128 0
606 -1128 0
-606 1128 0
1130 1131 0
-1132 1131 0
-1130 1132 -1131 0
609 -1131 0
-609 1131 0
1133 1134 0
-1135 1134 0
-1133 1135 -1134 0
611 -1134 0
-611 1134 0
1136 1137 0
1137 -1138 0
-1136 1138 -1137 0
615 -1137 0
-615 1137 0
1139 1140 0
1140 -1141 0
-1139 1141 -1140 0
619 -1140 0
-619 1140 0
1142 1143 0
-1144 1143 0
-1142 1144 -1143 0
624 -1143 0
-624 1143 0
1145 1146 0
1146 -1147 0
-1145 1147 -1146 0
626 -1146 0
-626 1146 0
1148 1149 0
-1150 1149 0
-1148 1150 -1149 0
630 -1149 0
-630 1149 0
1151 1152 0
-1153 1152 0
-1151 1153 -1152 0
634 -1152 0
-634 1152 0
1154 1155 0
1155 -1156 0
-1154 1156 -1155 0
639 -1155 0
-639 1155 0
1157 1158 0
-1159 1158 0
-1157 1159 -1158 0
641 -1158 0
-641 1158 0
1160 1161 0
-1162 1161 0
-1160 1162 -1161 0
646 -1161 0
-646 1161 0
1163 1164 0
1164 -1165 0
-1163 1165 -1164 0
648 -1164 0
-648 1164 0
1166 1167 0
-1168 1167 0
-1166 1168 -1167 0
652 -1167 0
-652 1167 0
1169 1170 0
1170 -1171 0
-1169 1171 -1170 0
657 -1170 0
-657 1170 0
1172 1173 0
-1174 1173 0
-1172 1174 -1173 0
659 -1173 0
-659 1173 0
1175 1176 0
1176 -1177 0
-1175 1177 -1176 0
663 -1176 0
-663 1176 0
1178 1179 0
-1180 1179 0
-1178 1180 -1179 0
664 -1179 0
-664 1179 0
1181 1182 0
1182 -1183 0
-1181 1183 -1182 0
668 -1182 0
-668 1182 0
1184 1185 0
-1186 1185 0
-1184 1186 -1185 0
672 -1185 0
-672 1185 0
1187 1188 0
1188 -1189 0
-1187 1189 -1188 0
677 -1188 0
-677 1188 0
680 0
683 0
-686 0
-689 0
692 0
-695 0
698 0
-701 0
704 0
-707 0
-710 0
-713 0
716 0
-719 0
-722 0
725 0
-728 0
-731 0
734 0
737 0
740 0
743 0
-746 0
-749 0
752 0
-755 0
-758 0
-761 0
764 0
767 0
-770 0
773 0
776 0
-779 0
-782 0
-785 0
-788 0
791 0
-794 0
797 0
800 0
-803 0
-806 0
-809 0
812 0
-815 0
-818 0
-821 0
-824 0
-827 0
-830 0
-833 0
-836 0
-839 0
-842 0
-845 0
-848 0
-851 0
854 0
-857 0
-860 0
-863 0
-866 0
-869 0
872 0
-875 0
878 0
-881 0
-884 0
887 0
890 0
893 0
896 0
-899 0
902 0
905 0
-908 0
911 0
-914 0
-917 0
920 0
923 0
-926 0
929 0
-932 0
-935 0
-938 0
-941 0
-944 0
947 0
-950 0
953 0
956 0
-959 0
962 0
-965 0
968 0
971 0
-974 0
977 0
-980 0
-983 0
-986 0
989 0
992 0
-995 0
998 0
-1001 0
1004 0
-1007 0
1010 0
-1013 0
-1016 0
-1019 0
-1022 0
-1025 0
-1028 0
1031 0
1034 0
-1037 0
1040 0
1043 0
-1046 0
1049 0
-1052 0
1055 0
1058 0
1061 0
-1064 0
1067 0
1070 0
1073 0
-1076 0
1079 0
1082 0
1085 0
-1088 0
1091 0
1094 0
-1097 0
1100 0
-1103 0
-1106 0
1109 0
1112 0
1115 0
-1118 0
1121 0
-1124 0
-1127 0
1130 0
-1133 0
1136 0
1139 0
-1142 0
1145 0
-1148 0
-1151 0
1154 0
1157 0
-1160 0
1163 0
1166 0
1169 0
-1172 0
1175 0
-1178 0
1181 0
-1184 0
1187 0
-1190 -1191 0
-1190 -682 0
-1190 -685 0
-1190 -688 0
-1190 -691 0
-1190 -694 0
-1190 -697 0
-1190 -700 0
-1190 -703 0
-1190 -706 0
-1190 -709 0
-1190 -712 0
-1190 -715 0
-1190 -718 0
-1190 -721 0
724 -1190 0
-1190 -727 0
-1190 -730 0
733 -1190 0
-1190 -736 0
-1190 -739 0
-1190 -742 0
-1190 -745 0
-1190 -748 0
-1190 -751 0
-1190 -754 0
-1190 -757 0
-1190 -760 0
763 -1190 0
-1190 -766 0
-1190 -769 0
-1190 -772 0
-1190 -775 0
-1190 -778 0
-1190 -781 0
-1190 -784 0
787 -1190 0
790 -1190 0
-1190 -793 0
-1190 -796 0
-1190 -799 0
-1190 -802 0
-1190 -805 0
808 -1190 0
-1190 -811 0
-1190 -814 0
-1190 -817 0
-1190 -820 0
823 -1190 0
826 -1190 0
-1190 -829 0
-1190 -832 0
-1190 -835 0
838 -1190 0
-1190 -841 0
-1190 -844 0
-1190 -847 0
850 -1190 0
-1190 -853 0
856 -1190 0
859 -1190 0
862 -1190 0
-1190 -865 0
-1190 -868 0
871 -1190 0
874 -1190 0
-1190 -877 0
880 -1190 0
-1190 -883 0
886 -1190 0
889 -1190 0
-1190 -892 0
-1190 -895 0
898 -1190 0
-1190 -901 0
-1190 -904 0
907 -1190 0
910 -1190 0
913 -1190 0
-1190 -916 0
919 -1190 0
922 -1190 0
925 -1190 0
928 -1190 0
-1190 -931 0
934 -1190 0
937 -1190 0
-1190 -940 0
943 -1190 0
946 -1190 0
949 -1190 0
952 -1190 0
955 -1190 0
958 -1190 0
-1190 -961 0
-1190 -964 0
967 -1190 0
-1190 -970 0
-1190 -973 0
976 -1190 0
979 -1190 0
982 -1190 0
-1190 -985 0
988 -1190 0
991 -1190 0
994 -1190 0
-1190 -997 0
-1190 -1000 0
1003 -1190 0
-1190 -1006 0
1009 -1190 0
1012 -1190 0
-1190 -1015 0
-1190 -1018 0
-1190 -1021 0
-1190 -1024 0
-1190 -1027 0
1030 -1190 0
-1190 -1033 0
1036 -1190 0
-1190 -1039 0
-1190 -1042 0
1045 -1190 0
-1190 -1048 0
1051 -1190 0
-1190 -1054 0
1057 -1190 0
-1190 -1060 0
1063 -1190 0
1066 -1190 0
1069 -1190 0
1072 -1190 0
1075 -1190 0
-1190 -1078 0
-1190 -1081 0
-1190 -1084 0
1087 -1190 0
-1190 -1090 0
-1190 -1093 0
1096 -1190 0
1099 -1190 0
-1190 -1102 0
-1190 -1105 0
1108 -1190 0
1111 -1190 0
-1190 -1114 0
1117 -1190 0
-1190 -1120 0
-1190 -1123 0
1126 -1190 0
-1190 -1129 0
-1190 -1132 0
-1190 -1135 0
1138 -1190 0
1141 -1190 0
1144 -1190 0
1147 -1190 0
1150 -1190 0
-1190 -1153 0
1156 -1190 0
-1190 -1159 0
-1190 -1162 0
1165 -1190 0
-1190 -1168 0
1171 -1190 0
-1190 -1174 0
1177 -1190 0
-1190 -1180 0
1183 -1190 0
1186 -1190 0
1189 -1190 0
682 -1191 0
685 -1191 0
-1191 -688 0
-1191 -691 0
694 -1191 0
-1191 -697 0
700 -1191 0
-1191 -703 0
706 -1191 0
-1191 -709 0
-1191 -712 0
-1191 -715 0
718 -1191 0
-1191 -721 0
-1191 -724 0
727 -1191 0
-1191 -730 0
-1191 -733 0
736 -1191 0
739 -1191 0
742 -1191 0
745 -1191 0
-1191 -748 0
-1191 -751 0
754 -1191 0
-1191 -757 0
-1191 -760 0
-1191 -763 0
766 -1191 0
769 -1191 0
-1191 -772 0
775 -1191 0
778 -1191 0
-1191 -781 0
-1191 -784 0
-1191 -787 0
-1191 -790 0
793 -1191 0
-1191 -796 0
799 -1191 0
802 -1191 0
-1191 -805 0
-1191 -808 0
-1191 -811 0
814 -1191 0
-1191 -817 0
-1191 -820 0
-1191 -823 0
-1191 -826 0
-1191 -829 0
-1191 -832 0
-1191 -835 0
-1191 -838 0
-1191 -841 0
-1191 -844 0
-1191 -847 0
-1191 -850 0
-1191 -853 0
856 -1191 0
-1191 -859 0
-1191 -862 0
-1191 -865 0
-1191 -868 0
-1191 -871 0
874 -1191 0
-1191 -877 0
880 -1191 0
-1191 -883 0
-1191 -886 0
889 -1191 0
892 -1191 0
895 -1191 0
898 -1191 0
-1191 -901 0
904 -1191 0
907 -1191 0
-1191 -910 0
913 -1191 0
-1191 -916 0
-1191 -919 0
922 -1191 0
925 -1191 0
-1191 -928 0
931 -1191 0
-1191 -934 0
-1191 -937 0
-1191 -940 0
-1191 -943 0
-1191 -946 0
949 -1191 0
-1191 -952 0
955 -1191 0
958 -1191 0
-1191 -961 0
964 -1191 0
-1191 -967 0
970 -1191 0
973 -1191 0
-1191 -976 0
979 -1191 0
-1191 -982 0
-1191 -985 0
-1191 -988 0
991 -1191 0
994 -1191 0
-1191 -997 0
1000 -1191 0
-1191 -1003 0
1006 -1191 0
-1191 -1009 0
1012 -1191 0
-1191 -1015 0
-1191 -1018 0
-1191 -1021 0
-1191 -1024 0
-1191 -1027 0
-1191 -1030 0
1033 -1191 0
1036 -1191 0
-1191 -1039 0
1042 -1191 0
1045 -1191 0
-1191 -1048 0
1051 -1191 0
-1191 -1054 0
1057 -1191 0
1060 -1191 0
1063 -1191 0
-1191 -1066 0
1069 -1191 0
1072 -1191 0
1075 -1191 0
-1191 -1078 0
1081 -1191 0
1084 -1191 0
1087 -1191 0
-1191 -1090 0
1093 -1191 0
1096 -1191 0
-1191 -1099 0
1102 -1191 0
-1191 -1105 0
-1191 -1108 0
1111 -1191 0
1114 -1191 0
1117 -1191 0
-1191 -1120 0
1123 -1191 0
-1191 -1126 0
-1191 -1129 0
1132 -1191 0
-1191 -1135 0
1138 -1191 0
1141 -1191 0
-1191 -1144 0
1147 -1191 0
-1191 -1150 0
-1191 -1153 0
1156 -1191 0
1159 -1191 0
-1191 -1162 0
1165 -1191 0
1168 -1191 0
1171 -1191 0
-1191 -1174 0
1177 -1191 0
-1191 -1180 0
1183 -1191 0
-1191 -1186 0
1189 -1191 0
1190 1191 0
-1192 0
-1193 0
-1194 0
-1195 0
-1196 0
-1197 0
-1198 0
-1199 0
